outputs/case_20.model.txt
internal_control_system_changed = False
internal_control_change_approved_by_board = False
internal_control_change_filed = False
confidentiality_maintained = False
other_law_or_authority_exemption = True
trade_declaration_submitted = True
person_or_related_trades_company_stock_or_equity_derivatives = True
person_is_natural_person = True
related_person_is_controlled_corporation = False
related_person_is_spouse_or_second_degree_relative_or_enterprise_controlled_by_person_or_spouse = True
personal_trade_prohibition = True
internal_control_system_established = True
internal_control_change_approved = True
confidentiality_compliance = True
fiduciary_duty_compliance = True
improper_public_recommendation = False
personal_trade_declaration_required = True
unauthorized_agent_trades = False
market_price_manipulation = False
fund_invests_in_company_stock_or_equity_derivatives = False
exemption_by_authority = False
insider_trading_prohibition = True
business_operated_according_to_law_and_articles = True
fraudulent_or_misleading_acts = False
internal_control_executed = True
personal_trade_declaration_compliance = True
internal_control_established = True
good_faith_principle = True
internal_control_system_executed = True
bribery_for_voting_rights = False
related_person_definition_compliant = True
personal_trade_confidentiality = True
undisclosed_rebate_or_benefit = False
unauthorized_account_transfer = False
duty_of_care = True
duty_of_loyalty = True
unreasonable_commission_payment = False
penalty = False
insider_information_leaked = False
self_or_others_benefit_trades = False
improper_promotion_or_benefit = False